; Benchmark for LTL-sketching problem
(set-logic QF_UF)
(set-info :status unknown)
(declare-fun z_0_0 () Bool)
(declare-fun z_0_1 () Bool)
(declare-fun z_0_13 () Bool)
(declare-fun z_0_25 () Bool)
(declare-fun z_0_37 () Bool)
(declare-fun z_0_50 () Bool)
(declare-fun z_0_56 () Bool)
(declare-fun z_0_70 () Bool)
(declare-fun z_0_83 () Bool)
(declare-fun z_0_98 () Bool)
(declare-fun z_0_104 () Bool)
(declare-fun z_2_0 () Bool)
(declare-fun z_2_12 () Bool)
(declare-fun z_2_11 () Bool)
(declare-fun z_2_10 () Bool)
(declare-fun z_2_9 () Bool)
(declare-fun z_2_8 () Bool)
(declare-fun z_2_7 () Bool)
(declare-fun z_2_6 () Bool)
(declare-fun z_2_5 () Bool)
(declare-fun z_2_4 () Bool)
(declare-fun z_2_3 () Bool)
(declare-fun z_2_2 () Bool)
(declare-fun z_2_1 () Bool)
(declare-fun z_0_2 () Bool)
(declare-fun z_0_3 () Bool)
(declare-fun z_0_4 () Bool)
(declare-fun z_0_5 () Bool)
(declare-fun z_0_6 () Bool)
(declare-fun z_0_7 () Bool)
(declare-fun z_0_8 () Bool)
(declare-fun z_0_9 () Bool)
(declare-fun z_0_10 () Bool)
(declare-fun z_0_11 () Bool)
(declare-fun z_0_12 () Bool)
(declare-fun z_2_24 () Bool)
(declare-fun z_2_23 () Bool)
(declare-fun z_2_22 () Bool)
(declare-fun z_2_21 () Bool)
(declare-fun z_2_20 () Bool)
(declare-fun z_2_19 () Bool)
(declare-fun z_2_18 () Bool)
(declare-fun z_2_17 () Bool)
(declare-fun z_2_16 () Bool)
(declare-fun z_2_15 () Bool)
(declare-fun z_2_14 () Bool)
(declare-fun z_2_13 () Bool)
(declare-fun z_0_14 () Bool)
(declare-fun z_0_15 () Bool)
(declare-fun z_0_16 () Bool)
(declare-fun z_0_17 () Bool)
(declare-fun z_0_18 () Bool)
(declare-fun z_0_19 () Bool)
(declare-fun z_0_20 () Bool)
(declare-fun z_0_21 () Bool)
(declare-fun z_0_22 () Bool)
(declare-fun z_0_23 () Bool)
(declare-fun z_0_24 () Bool)
(declare-fun z_2_36 () Bool)
(declare-fun z_2_35 () Bool)
(declare-fun z_2_34 () Bool)
(declare-fun z_2_33 () Bool)
(declare-fun z_2_32 () Bool)
(declare-fun z_2_31 () Bool)
(declare-fun z_2_30 () Bool)
(declare-fun z_2_29 () Bool)
(declare-fun z_2_28 () Bool)
(declare-fun z_2_27 () Bool)
(declare-fun z_2_26 () Bool)
(declare-fun z_2_25 () Bool)
(declare-fun z_0_26 () Bool)
(declare-fun z_0_27 () Bool)
(declare-fun z_0_28 () Bool)
(declare-fun z_0_29 () Bool)
(declare-fun z_0_30 () Bool)
(declare-fun z_0_31 () Bool)
(declare-fun z_0_32 () Bool)
(declare-fun z_0_33 () Bool)
(declare-fun z_0_34 () Bool)
(declare-fun z_0_35 () Bool)
(declare-fun z_0_36 () Bool)
(declare-fun z_2_49 () Bool)
(declare-fun z_2_48 () Bool)
(declare-fun z_2_47 () Bool)
(declare-fun z_2_46 () Bool)
(declare-fun z_2_45 () Bool)
(declare-fun z_2_44 () Bool)
(declare-fun z_2_43 () Bool)
(declare-fun z_2_42 () Bool)
(declare-fun z_2_41 () Bool)
(declare-fun z_2_40 () Bool)
(declare-fun z_2_39 () Bool)
(declare-fun z_2_38 () Bool)
(declare-fun z_2_37 () Bool)
(declare-fun z_0_38 () Bool)
(declare-fun z_0_39 () Bool)
(declare-fun z_0_40 () Bool)
(declare-fun z_0_41 () Bool)
(declare-fun z_0_42 () Bool)
(declare-fun z_0_43 () Bool)
(declare-fun z_0_44 () Bool)
(declare-fun z_0_45 () Bool)
(declare-fun z_0_46 () Bool)
(declare-fun z_0_47 () Bool)
(declare-fun z_0_48 () Bool)
(declare-fun z_0_49 () Bool)
(declare-fun z_2_55 () Bool)
(declare-fun z_2_54 () Bool)
(declare-fun z_2_53 () Bool)
(declare-fun z_2_52 () Bool)
(declare-fun z_2_51 () Bool)
(declare-fun z_2_50 () Bool)
(declare-fun z_0_51 () Bool)
(declare-fun z_0_52 () Bool)
(declare-fun z_0_53 () Bool)
(declare-fun z_0_54 () Bool)
(declare-fun z_0_55 () Bool)
(declare-fun z_2_69 () Bool)
(declare-fun z_2_68 () Bool)
(declare-fun z_2_67 () Bool)
(declare-fun z_2_66 () Bool)
(declare-fun z_2_65 () Bool)
(declare-fun z_2_64 () Bool)
(declare-fun z_2_63 () Bool)
(declare-fun z_2_62 () Bool)
(declare-fun z_2_61 () Bool)
(declare-fun z_2_60 () Bool)
(declare-fun z_2_59 () Bool)
(declare-fun z_2_58 () Bool)
(declare-fun z_2_57 () Bool)
(declare-fun z_2_56 () Bool)
(declare-fun z_0_57 () Bool)
(declare-fun z_0_58 () Bool)
(declare-fun z_0_59 () Bool)
(declare-fun z_0_60 () Bool)
(declare-fun z_0_61 () Bool)
(declare-fun z_0_62 () Bool)
(declare-fun z_0_63 () Bool)
(declare-fun z_0_64 () Bool)
(declare-fun z_0_65 () Bool)
(declare-fun z_0_66 () Bool)
(declare-fun z_0_67 () Bool)
(declare-fun z_0_68 () Bool)
(declare-fun z_0_69 () Bool)
(declare-fun z_2_82 () Bool)
(declare-fun z_2_81 () Bool)
(declare-fun z_2_80 () Bool)
(declare-fun z_2_79 () Bool)
(declare-fun z_2_78 () Bool)
(declare-fun z_2_77 () Bool)
(declare-fun z_2_76 () Bool)
(declare-fun z_2_75 () Bool)
(declare-fun z_2_74 () Bool)
(declare-fun z_2_73 () Bool)
(declare-fun z_2_72 () Bool)
(declare-fun z_2_71 () Bool)
(declare-fun z_2_70 () Bool)
(declare-fun z_0_71 () Bool)
(declare-fun z_0_72 () Bool)
(declare-fun z_0_73 () Bool)
(declare-fun z_0_74 () Bool)
(declare-fun z_0_75 () Bool)
(declare-fun z_0_76 () Bool)
(declare-fun z_0_77 () Bool)
(declare-fun z_0_78 () Bool)
(declare-fun z_0_79 () Bool)
(declare-fun z_0_80 () Bool)
(declare-fun z_0_81 () Bool)
(declare-fun z_0_82 () Bool)
(declare-fun z_2_97 () Bool)
(declare-fun z_2_96 () Bool)
(declare-fun z_2_95 () Bool)
(declare-fun z_2_94 () Bool)
(declare-fun z_2_93 () Bool)
(declare-fun z_2_92 () Bool)
(declare-fun z_2_91 () Bool)
(declare-fun z_2_90 () Bool)
(declare-fun z_2_89 () Bool)
(declare-fun z_2_88 () Bool)
(declare-fun z_2_87 () Bool)
(declare-fun z_2_86 () Bool)
(declare-fun z_2_85 () Bool)
(declare-fun z_2_84 () Bool)
(declare-fun z_2_83 () Bool)
(declare-fun z_0_84 () Bool)
(declare-fun z_0_85 () Bool)
(declare-fun z_0_86 () Bool)
(declare-fun z_0_87 () Bool)
(declare-fun z_0_88 () Bool)
(declare-fun z_0_89 () Bool)
(declare-fun z_0_90 () Bool)
(declare-fun z_0_91 () Bool)
(declare-fun z_0_92 () Bool)
(declare-fun z_0_93 () Bool)
(declare-fun z_0_94 () Bool)
(declare-fun z_0_95 () Bool)
(declare-fun z_0_96 () Bool)
(declare-fun z_0_97 () Bool)
(declare-fun z_2_103 () Bool)
(declare-fun z_2_102 () Bool)
(declare-fun z_2_101 () Bool)
(declare-fun z_2_100 () Bool)
(declare-fun z_2_99 () Bool)
(declare-fun z_2_98 () Bool)
(declare-fun z_0_99 () Bool)
(declare-fun z_0_100 () Bool)
(declare-fun z_0_101 () Bool)
(declare-fun z_0_102 () Bool)
(declare-fun z_0_103 () Bool)
(declare-fun z_2_118 () Bool)
(declare-fun z_2_117 () Bool)
(declare-fun z_2_116 () Bool)
(declare-fun z_2_115 () Bool)
(declare-fun z_2_114 () Bool)
(declare-fun z_2_113 () Bool)
(declare-fun z_2_112 () Bool)
(declare-fun z_2_111 () Bool)
(declare-fun z_2_110 () Bool)
(declare-fun z_2_109 () Bool)
(declare-fun z_2_108 () Bool)
(declare-fun z_2_107 () Bool)
(declare-fun z_2_106 () Bool)
(declare-fun z_2_105 () Bool)
(declare-fun z_2_104 () Bool)
(declare-fun z_0_105 () Bool)
(declare-fun z_0_106 () Bool)
(declare-fun z_0_107 () Bool)
(declare-fun z_0_108 () Bool)
(declare-fun z_0_109 () Bool)
(declare-fun z_0_110 () Bool)
(declare-fun z_0_111 () Bool)
(declare-fun z_0_112 () Bool)
(declare-fun z_0_113 () Bool)
(declare-fun z_0_114 () Bool)
(declare-fun z_0_115 () Bool)
(declare-fun z_0_116 () Bool)
(declare-fun z_0_117 () Bool)
(declare-fun z_0_118 () Bool)
(declare-fun x_2_p () Bool)
(declare-fun x_2_-> () Bool)
(declare-fun x_2_U () Bool)
(declare-fun x_2_v () Bool)
(declare-fun x_2_& () Bool)
(declare-fun x_2_X () Bool)
(declare-fun x_2_! () Bool)
(declare-fun x_2_F () Bool)
(declare-fun x_2_G () Bool)
(assert
 z_0_0)
(assert
 (not z_0_1))
(assert
 (not z_0_13))
(assert
 (not z_0_25))
(assert
 (not z_0_37))
(assert
 (not z_0_50))
(assert
 (not z_0_56))
(assert
 (not z_0_70))
(assert
 (not z_0_83))
(assert
 (not z_0_98))
(assert
 (not z_0_104))
(assert
 (= z_0_0 (and z_2_0)))
(assert
 (let (($x2675 (and z_2_1 z_2_2 z_2_3 z_2_4 z_2_5 z_2_6 z_2_7 z_2_8 z_2_9 z_2_10 z_2_11 z_2_12)))
 (= z_0_1 $x2675)))
(assert
 (let (($x2677 (and z_2_2 z_2_3 z_2_4 z_2_5 z_2_6 z_2_7 z_2_8 z_2_9 z_2_10 z_2_11 z_2_12)))
 (= z_0_2 $x2677)))
(assert
 (let (($x2679 (and z_2_3 z_2_4 z_2_5 z_2_6 z_2_7 z_2_8 z_2_9 z_2_10 z_2_11 z_2_12)))
 (= z_0_3 $x2679)))
(assert
 (let (($x2681 (and z_2_4 z_2_5 z_2_6 z_2_7 z_2_8 z_2_9 z_2_10 z_2_11 z_2_12)))
 (= z_0_4 $x2681)))
(assert
 (let (($x2683 (and z_2_5 z_2_6 z_2_7 z_2_8 z_2_9 z_2_10 z_2_11 z_2_12)))
 (= z_0_5 $x2683)))
(assert
 (= z_0_6 (and z_2_6 z_2_7 z_2_8 z_2_9 z_2_10 z_2_11 z_2_12)))
(assert
 (= z_0_7 (and z_2_7 z_2_8 z_2_9 z_2_10 z_2_11 z_2_12 z_2_6)))
(assert
 (= z_0_8 (and z_2_8 z_2_9 z_2_10 z_2_11 z_2_12 z_2_6 z_2_7)))
(assert
 (= z_0_9 (and z_2_9 z_2_10 z_2_11 z_2_12 z_2_6 z_2_7 z_2_8)))
(assert
 (= z_0_10 (and z_2_10 z_2_11 z_2_12 z_2_6 z_2_7 z_2_8 z_2_9)))
(assert
 (= z_0_11 (and z_2_11 z_2_12 z_2_6 z_2_7 z_2_8 z_2_9 z_2_10)))
(assert
 (= z_0_12 (and z_2_12 z_2_6 z_2_7 z_2_8 z_2_9 z_2_10 z_2_11)))
(assert
 (let (($x2711 (and z_2_13 z_2_14 z_2_15 z_2_16 z_2_17 z_2_18 z_2_19 z_2_20 z_2_21 z_2_22 z_2_23 z_2_24)))
 (= z_0_13 $x2711)))
(assert
 (let (($x2713 (and z_2_14 z_2_15 z_2_16 z_2_17 z_2_18 z_2_19 z_2_20 z_2_21 z_2_22 z_2_23 z_2_24)))
 (= z_0_14 $x2713)))
(assert
 (let (($x2715 (and z_2_15 z_2_16 z_2_17 z_2_18 z_2_19 z_2_20 z_2_21 z_2_22 z_2_23 z_2_24)))
 (= z_0_15 $x2715)))
(assert
 (let (($x2717 (and z_2_16 z_2_17 z_2_18 z_2_19 z_2_20 z_2_21 z_2_22 z_2_23 z_2_24)))
 (= z_0_16 $x2717)))
(assert
 (let (($x2719 (and z_2_17 z_2_18 z_2_19 z_2_20 z_2_21 z_2_22 z_2_23 z_2_24)))
 (= z_0_17 $x2719)))
(assert
 (= z_0_18 (and z_2_18 z_2_19 z_2_20 z_2_21 z_2_22 z_2_23 z_2_24)))
(assert
 (= z_0_19 (and z_2_19 z_2_20 z_2_21 z_2_22 z_2_23 z_2_24)))
(assert
 (= z_0_20 (and z_2_20 z_2_21 z_2_22 z_2_23 z_2_24 z_2_19)))
(assert
 (= z_0_21 (and z_2_21 z_2_22 z_2_23 z_2_24 z_2_19 z_2_20)))
(assert
 (= z_0_22 (and z_2_22 z_2_23 z_2_24 z_2_19 z_2_20 z_2_21)))
(assert
 (= z_0_23 (and z_2_23 z_2_24 z_2_19 z_2_20 z_2_21 z_2_22)))
(assert
 (= z_0_24 (and z_2_24 z_2_19 z_2_20 z_2_21 z_2_22 z_2_23)))
(assert
 (let (($x2747 (and z_2_25 z_2_26 z_2_27 z_2_28 z_2_29 z_2_30 z_2_31 z_2_32 z_2_33 z_2_34 z_2_35 z_2_36)))
 (= z_0_25 $x2747)))
(assert
 (let (($x2749 (and z_2_26 z_2_27 z_2_28 z_2_29 z_2_30 z_2_31 z_2_32 z_2_33 z_2_34 z_2_35 z_2_36)))
 (= z_0_26 $x2749)))
(assert
 (let (($x2751 (and z_2_27 z_2_28 z_2_29 z_2_30 z_2_31 z_2_32 z_2_33 z_2_34 z_2_35 z_2_36)))
 (= z_0_27 $x2751)))
(assert
 (let (($x2753 (and z_2_28 z_2_29 z_2_30 z_2_31 z_2_32 z_2_33 z_2_34 z_2_35 z_2_36)))
 (= z_0_28 $x2753)))
(assert
 (let (($x2755 (and z_2_29 z_2_30 z_2_31 z_2_32 z_2_33 z_2_34 z_2_35 z_2_36)))
 (= z_0_29 $x2755)))
(assert
 (let (($x2757 (and z_2_30 z_2_31 z_2_32 z_2_33 z_2_34 z_2_35 z_2_36 z_2_29)))
 (= z_0_30 $x2757)))
(assert
 (let (($x2759 (and z_2_31 z_2_32 z_2_33 z_2_34 z_2_35 z_2_36 z_2_29 z_2_30)))
 (= z_0_31 $x2759)))
(assert
 (let (($x2761 (and z_2_32 z_2_33 z_2_34 z_2_35 z_2_36 z_2_29 z_2_30 z_2_31)))
 (= z_0_32 $x2761)))
(assert
 (let (($x2763 (and z_2_33 z_2_34 z_2_35 z_2_36 z_2_29 z_2_30 z_2_31 z_2_32)))
 (= z_0_33 $x2763)))
(assert
 (let (($x2765 (and z_2_34 z_2_35 z_2_36 z_2_29 z_2_30 z_2_31 z_2_32 z_2_33)))
 (= z_0_34 $x2765)))
(assert
 (let (($x2767 (and z_2_35 z_2_36 z_2_29 z_2_30 z_2_31 z_2_32 z_2_33 z_2_34)))
 (= z_0_35 $x2767)))
(assert
 (let (($x2769 (and z_2_36 z_2_29 z_2_30 z_2_31 z_2_32 z_2_33 z_2_34 z_2_35)))
 (= z_0_36 $x2769)))
(assert
 (let (($x2784 (and z_2_37 z_2_38 z_2_39 z_2_40 z_2_41 z_2_42 z_2_43 z_2_44 z_2_45 z_2_46 z_2_47 z_2_48 z_2_49)))
 (= z_0_37 $x2784)))
(assert
 (let (($x2786 (and z_2_38 z_2_39 z_2_40 z_2_41 z_2_42 z_2_43 z_2_44 z_2_45 z_2_46 z_2_47 z_2_48 z_2_49)))
 (= z_0_38 $x2786)))
(assert
 (let (($x2788 (and z_2_39 z_2_40 z_2_41 z_2_42 z_2_43 z_2_44 z_2_45 z_2_46 z_2_47 z_2_48 z_2_49)))
 (= z_0_39 $x2788)))
(assert
 (let (($x2790 (and z_2_40 z_2_41 z_2_42 z_2_43 z_2_44 z_2_45 z_2_46 z_2_47 z_2_48 z_2_49)))
 (= z_0_40 $x2790)))
(assert
 (let (($x2792 (and z_2_41 z_2_42 z_2_43 z_2_44 z_2_45 z_2_46 z_2_47 z_2_48 z_2_49)))
 (= z_0_41 $x2792)))
(assert
 (let (($x2794 (and z_2_42 z_2_43 z_2_44 z_2_45 z_2_46 z_2_47 z_2_48 z_2_49)))
 (= z_0_42 $x2794)))
(assert
 (let (($x2796 (and z_2_43 z_2_44 z_2_45 z_2_46 z_2_47 z_2_48 z_2_49 z_2_42)))
 (= z_0_43 $x2796)))
(assert
 (let (($x2798 (and z_2_44 z_2_45 z_2_46 z_2_47 z_2_48 z_2_49 z_2_42 z_2_43)))
 (= z_0_44 $x2798)))
(assert
 (let (($x2800 (and z_2_45 z_2_46 z_2_47 z_2_48 z_2_49 z_2_42 z_2_43 z_2_44)))
 (= z_0_45 $x2800)))
(assert
 (let (($x2802 (and z_2_46 z_2_47 z_2_48 z_2_49 z_2_42 z_2_43 z_2_44 z_2_45)))
 (= z_0_46 $x2802)))
(assert
 (let (($x2804 (and z_2_47 z_2_48 z_2_49 z_2_42 z_2_43 z_2_44 z_2_45 z_2_46)))
 (= z_0_47 $x2804)))
(assert
 (let (($x2806 (and z_2_48 z_2_49 z_2_42 z_2_43 z_2_44 z_2_45 z_2_46 z_2_47)))
 (= z_0_48 $x2806)))
(assert
 (let (($x2808 (and z_2_49 z_2_42 z_2_43 z_2_44 z_2_45 z_2_46 z_2_47 z_2_48)))
 (= z_0_49 $x2808)))
(assert
 (let (($x2816 (and z_2_50 z_2_51 z_2_52 z_2_53 z_2_54 z_2_55 z_2_32 z_2_33 z_2_34 z_2_35 z_2_36 z_2_29 z_2_30 z_2_31)))
 (= z_0_50 $x2816)))
(assert
 (let (($x2818 (and z_2_51 z_2_52 z_2_53 z_2_54 z_2_55 z_2_32 z_2_33 z_2_34 z_2_35 z_2_36 z_2_29 z_2_30 z_2_31)))
 (= z_0_51 $x2818)))
(assert
 (let (($x2820 (and z_2_52 z_2_53 z_2_54 z_2_55 z_2_32 z_2_33 z_2_34 z_2_35 z_2_36 z_2_29 z_2_30 z_2_31)))
 (= z_0_52 $x2820)))
(assert
 (let (($x2822 (and z_2_53 z_2_54 z_2_55 z_2_32 z_2_33 z_2_34 z_2_35 z_2_36 z_2_29 z_2_30 z_2_31)))
 (= z_0_53 $x2822)))
(assert
 (let (($x2824 (and z_2_54 z_2_55 z_2_32 z_2_33 z_2_34 z_2_35 z_2_36 z_2_29 z_2_30 z_2_31)))
 (= z_0_54 $x2824)))
(assert
 (let (($x2826 (and z_2_55 z_2_32 z_2_33 z_2_34 z_2_35 z_2_36 z_2_29 z_2_30 z_2_31)))
 (= z_0_55 $x2826)))
(assert
 (let (($x2842 (and z_2_56 z_2_57 z_2_58 z_2_59 z_2_60 z_2_61 z_2_62 z_2_63 z_2_64 z_2_65 z_2_66 z_2_67 z_2_68 z_2_69)))
 (= z_0_56 $x2842)))
(assert
 (let (($x2844 (and z_2_57 z_2_58 z_2_59 z_2_60 z_2_61 z_2_62 z_2_63 z_2_64 z_2_65 z_2_66 z_2_67 z_2_68 z_2_69)))
 (= z_0_57 $x2844)))
(assert
 (let (($x2846 (and z_2_58 z_2_59 z_2_60 z_2_61 z_2_62 z_2_63 z_2_64 z_2_65 z_2_66 z_2_67 z_2_68 z_2_69)))
 (= z_0_58 $x2846)))
(assert
 (let (($x2848 (and z_2_59 z_2_60 z_2_61 z_2_62 z_2_63 z_2_64 z_2_65 z_2_66 z_2_67 z_2_68 z_2_69)))
 (= z_0_59 $x2848)))
(assert
 (let (($x2850 (and z_2_60 z_2_61 z_2_62 z_2_63 z_2_64 z_2_65 z_2_66 z_2_67 z_2_68 z_2_69)))
 (= z_0_60 $x2850)))
(assert
 (let (($x2852 (and z_2_61 z_2_62 z_2_63 z_2_64 z_2_65 z_2_66 z_2_67 z_2_68 z_2_69)))
 (= z_0_61 $x2852)))
(assert
 (let (($x2854 (and z_2_62 z_2_63 z_2_64 z_2_65 z_2_66 z_2_67 z_2_68 z_2_69)))
 (= z_0_62 $x2854)))
(assert
 (let (($x2856 (and z_2_63 z_2_64 z_2_65 z_2_66 z_2_67 z_2_68 z_2_69 z_2_62)))
 (= z_0_63 $x2856)))
(assert
 (let (($x2858 (and z_2_64 z_2_65 z_2_66 z_2_67 z_2_68 z_2_69 z_2_62 z_2_63)))
 (= z_0_64 $x2858)))
(assert
 (let (($x2860 (and z_2_65 z_2_66 z_2_67 z_2_68 z_2_69 z_2_62 z_2_63 z_2_64)))
 (= z_0_65 $x2860)))
(assert
 (let (($x2862 (and z_2_66 z_2_67 z_2_68 z_2_69 z_2_62 z_2_63 z_2_64 z_2_65)))
 (= z_0_66 $x2862)))
(assert
 (let (($x2864 (and z_2_67 z_2_68 z_2_69 z_2_62 z_2_63 z_2_64 z_2_65 z_2_66)))
 (= z_0_67 $x2864)))
(assert
 (let (($x2866 (and z_2_68 z_2_69 z_2_62 z_2_63 z_2_64 z_2_65 z_2_66 z_2_67)))
 (= z_0_68 $x2866)))
(assert
 (let (($x2868 (and z_2_69 z_2_62 z_2_63 z_2_64 z_2_65 z_2_66 z_2_67 z_2_68)))
 (= z_0_69 $x2868)))
(assert
 (let (($x2883 (and z_2_70 z_2_71 z_2_72 z_2_73 z_2_74 z_2_75 z_2_76 z_2_77 z_2_78 z_2_79 z_2_80 z_2_81 z_2_82)))
 (= z_0_70 $x2883)))
(assert
 (let (($x2885 (and z_2_71 z_2_72 z_2_73 z_2_74 z_2_75 z_2_76 z_2_77 z_2_78 z_2_79 z_2_80 z_2_81 z_2_82)))
 (= z_0_71 $x2885)))
(assert
 (let (($x2887 (and z_2_72 z_2_73 z_2_74 z_2_75 z_2_76 z_2_77 z_2_78 z_2_79 z_2_80 z_2_81 z_2_82)))
 (= z_0_72 $x2887)))
(assert
 (let (($x2889 (and z_2_73 z_2_74 z_2_75 z_2_76 z_2_77 z_2_78 z_2_79 z_2_80 z_2_81 z_2_82)))
 (= z_0_73 $x2889)))
(assert
 (let (($x2891 (and z_2_74 z_2_75 z_2_76 z_2_77 z_2_78 z_2_79 z_2_80 z_2_81 z_2_82)))
 (= z_0_74 $x2891)))
(assert
 (let (($x2893 (and z_2_75 z_2_76 z_2_77 z_2_78 z_2_79 z_2_80 z_2_81 z_2_82)))
 (= z_0_75 $x2893)))
(assert
 (= z_0_76 (and z_2_76 z_2_77 z_2_78 z_2_79 z_2_80 z_2_81 z_2_82)))
(assert
 (= z_0_77 (and z_2_77 z_2_78 z_2_79 z_2_80 z_2_81 z_2_82)))
(assert
 (= z_0_78 (and z_2_78 z_2_79 z_2_80 z_2_81 z_2_82 z_2_77)))
(assert
 (= z_0_79 (and z_2_79 z_2_80 z_2_81 z_2_82 z_2_77 z_2_78)))
(assert
 (= z_0_80 (and z_2_80 z_2_81 z_2_82 z_2_77 z_2_78 z_2_79)))
(assert
 (= z_0_81 (and z_2_81 z_2_82 z_2_77 z_2_78 z_2_79 z_2_80)))
(assert
 (= z_0_82 (and z_2_82 z_2_77 z_2_78 z_2_79 z_2_80 z_2_81)))
(assert
 (let (($x2924 (and z_2_83 z_2_84 z_2_85 z_2_86 z_2_87 z_2_88 z_2_89 z_2_90 z_2_91 z_2_92 z_2_93 z_2_94 z_2_95 z_2_96 z_2_97)))
 (= z_0_83 $x2924)))
(assert
 (let (($x2926 (and z_2_84 z_2_85 z_2_86 z_2_87 z_2_88 z_2_89 z_2_90 z_2_91 z_2_92 z_2_93 z_2_94 z_2_95 z_2_96 z_2_97)))
 (= z_0_84 $x2926)))
(assert
 (let (($x2928 (and z_2_85 z_2_86 z_2_87 z_2_88 z_2_89 z_2_90 z_2_91 z_2_92 z_2_93 z_2_94 z_2_95 z_2_96 z_2_97)))
 (= z_0_85 $x2928)))
(assert
 (let (($x2930 (and z_2_86 z_2_87 z_2_88 z_2_89 z_2_90 z_2_91 z_2_92 z_2_93 z_2_94 z_2_95 z_2_96 z_2_97)))
 (= z_0_86 $x2930)))
(assert
 (let (($x2932 (and z_2_87 z_2_88 z_2_89 z_2_90 z_2_91 z_2_92 z_2_93 z_2_94 z_2_95 z_2_96 z_2_97)))
 (= z_0_87 $x2932)))
(assert
 (let (($x2934 (and z_2_88 z_2_89 z_2_90 z_2_91 z_2_92 z_2_93 z_2_94 z_2_95 z_2_96 z_2_97)))
 (= z_0_88 $x2934)))
(assert
 (let (($x2936 (and z_2_89 z_2_90 z_2_91 z_2_92 z_2_93 z_2_94 z_2_95 z_2_96 z_2_97)))
 (= z_0_89 $x2936)))
(assert
 (let (($x2938 (and z_2_90 z_2_91 z_2_92 z_2_93 z_2_94 z_2_95 z_2_96 z_2_97)))
 (= z_0_90 $x2938)))
(assert
 (let (($x2940 (and z_2_91 z_2_92 z_2_93 z_2_94 z_2_95 z_2_96 z_2_97 z_2_90)))
 (= z_0_91 $x2940)))
(assert
 (let (($x2942 (and z_2_92 z_2_93 z_2_94 z_2_95 z_2_96 z_2_97 z_2_90 z_2_91)))
 (= z_0_92 $x2942)))
(assert
 (let (($x2944 (and z_2_93 z_2_94 z_2_95 z_2_96 z_2_97 z_2_90 z_2_91 z_2_92)))
 (= z_0_93 $x2944)))
(assert
 (let (($x2946 (and z_2_94 z_2_95 z_2_96 z_2_97 z_2_90 z_2_91 z_2_92 z_2_93)))
 (= z_0_94 $x2946)))
(assert
 (let (($x2948 (and z_2_95 z_2_96 z_2_97 z_2_90 z_2_91 z_2_92 z_2_93 z_2_94)))
 (= z_0_95 $x2948)))
(assert
 (let (($x2950 (and z_2_96 z_2_97 z_2_90 z_2_91 z_2_92 z_2_93 z_2_94 z_2_95)))
 (= z_0_96 $x2950)))
(assert
 (let (($x2952 (and z_2_97 z_2_90 z_2_91 z_2_92 z_2_93 z_2_94 z_2_95 z_2_96)))
 (= z_0_97 $x2952)))
(assert
 (let (($x2960 (and z_2_98 z_2_99 z_2_100 z_2_101 z_2_102 z_2_103 z_2_80 z_2_81 z_2_82 z_2_77 z_2_78 z_2_79)))
 (= z_0_98 $x2960)))
(assert
 (let (($x2962 (and z_2_99 z_2_100 z_2_101 z_2_102 z_2_103 z_2_80 z_2_81 z_2_82 z_2_77 z_2_78 z_2_79)))
 (= z_0_99 $x2962)))
(assert
 (let (($x2964 (and z_2_100 z_2_101 z_2_102 z_2_103 z_2_80 z_2_81 z_2_82 z_2_77 z_2_78 z_2_79)))
 (= z_0_100 $x2964)))
(assert
 (let (($x2966 (and z_2_101 z_2_102 z_2_103 z_2_80 z_2_81 z_2_82 z_2_77 z_2_78 z_2_79)))
 (= z_0_101 $x2966)))
(assert
 (let (($x2968 (and z_2_102 z_2_103 z_2_80 z_2_81 z_2_82 z_2_77 z_2_78 z_2_79)))
 (= z_0_102 $x2968)))
(assert
 (= z_0_103 (and z_2_103 z_2_80 z_2_81 z_2_82 z_2_77 z_2_78 z_2_79)))
(assert
 (let (($x2987 (and z_2_104 z_2_105 z_2_106 z_2_107 z_2_108 z_2_109 z_2_110 z_2_111 z_2_112 z_2_113 z_2_114 z_2_115 z_2_116 z_2_117 z_2_118)))
 (= z_0_104 $x2987)))
(assert
 (let (($x2989 (and z_2_105 z_2_106 z_2_107 z_2_108 z_2_109 z_2_110 z_2_111 z_2_112 z_2_113 z_2_114 z_2_115 z_2_116 z_2_117 z_2_118)))
 (= z_0_105 $x2989)))
(assert
 (let (($x2991 (and z_2_106 z_2_107 z_2_108 z_2_109 z_2_110 z_2_111 z_2_112 z_2_113 z_2_114 z_2_115 z_2_116 z_2_117 z_2_118)))
 (= z_0_106 $x2991)))
(assert
 (let (($x2993 (and z_2_107 z_2_108 z_2_109 z_2_110 z_2_111 z_2_112 z_2_113 z_2_114 z_2_115 z_2_116 z_2_117 z_2_118)))
 (= z_0_107 $x2993)))
(assert
 (let (($x2995 (and z_2_108 z_2_109 z_2_110 z_2_111 z_2_112 z_2_113 z_2_114 z_2_115 z_2_116 z_2_117 z_2_118)))
 (= z_0_108 $x2995)))
(assert
 (let (($x2997 (and z_2_109 z_2_110 z_2_111 z_2_112 z_2_113 z_2_114 z_2_115 z_2_116 z_2_117 z_2_118)))
 (= z_0_109 $x2997)))
(assert
 (let (($x2999 (and z_2_110 z_2_111 z_2_112 z_2_113 z_2_114 z_2_115 z_2_116 z_2_117 z_2_118)))
 (= z_0_110 $x2999)))
(assert
 (let (($x3001 (and z_2_111 z_2_112 z_2_113 z_2_114 z_2_115 z_2_116 z_2_117 z_2_118)))
 (= z_0_111 $x3001)))
(assert
 (let (($x3003 (and z_2_112 z_2_113 z_2_114 z_2_115 z_2_116 z_2_117 z_2_118 z_2_111)))
 (= z_0_112 $x3003)))
(assert
 (let (($x3005 (and z_2_113 z_2_114 z_2_115 z_2_116 z_2_117 z_2_118 z_2_111 z_2_112)))
 (= z_0_113 $x3005)))
(assert
 (let (($x3007 (and z_2_114 z_2_115 z_2_116 z_2_117 z_2_118 z_2_111 z_2_112 z_2_113)))
 (= z_0_114 $x3007)))
(assert
 (let (($x3009 (and z_2_115 z_2_116 z_2_117 z_2_118 z_2_111 z_2_112 z_2_113 z_2_114)))
 (= z_0_115 $x3009)))
(assert
 (let (($x3011 (and z_2_116 z_2_117 z_2_118 z_2_111 z_2_112 z_2_113 z_2_114 z_2_115)))
 (= z_0_116 $x3011)))
(assert
 (let (($x3013 (and z_2_117 z_2_118 z_2_111 z_2_112 z_2_113 z_2_114 z_2_115 z_2_116)))
 (= z_0_117 $x3013)))
(assert
 (let (($x3015 (and z_2_118 z_2_111 z_2_112 z_2_113 z_2_114 z_2_115 z_2_116 z_2_117)))
 (= z_0_118 $x3015)))
(assert
 (and true true))
(assert
 (=> x_2_p z_2_0))
(assert
 (=> x_2_p z_2_1))
(assert
 (=> x_2_p z_2_2))
(assert
 (=> x_2_p z_2_3))
(assert
 (let (($x3046 (not z_2_4)))
 (=> x_2_p $x3046)))
(assert
 (=> x_2_p z_2_5))
(assert
 (let (($x3051 (not z_2_6)))
 (=> x_2_p $x3051)))
(assert
 (=> x_2_p z_2_7))
(assert
 (=> x_2_p z_2_8))
(assert
 (let (($x3058 (not z_2_9)))
 (=> x_2_p $x3058)))
(assert
 (let (($x3061 (not z_2_10)))
 (=> x_2_p $x3061)))
(assert
 (=> x_2_p z_2_11))
(assert
 (let (($x3066 (not z_2_12)))
 (=> x_2_p $x3066)))
(assert
 (let (($x3069 (not z_2_13)))
 (=> x_2_p $x3069)))
(assert
 (=> x_2_p z_2_14))
(assert
 (=> x_2_p z_2_15))
(assert
 (let (($x3076 (not z_2_16)))
 (=> x_2_p $x3076)))
(assert
 (=> x_2_p z_2_17))
(assert
 (=> x_2_p z_2_18))
(assert
 (=> x_2_p z_2_19))
(assert
 (let (($x3085 (not z_2_20)))
 (=> x_2_p $x3085)))
(assert
 (let (($x3088 (not z_2_21)))
 (=> x_2_p $x3088)))
(assert
 (let (($x3091 (not z_2_22)))
 (=> x_2_p $x3091)))
(assert
 (=> x_2_p z_2_23))
(assert
 (let (($x3096 (not z_2_24)))
 (=> x_2_p $x3096)))
(assert
 (=> x_2_p z_2_25))
(assert
 (let (($x3101 (not z_2_26)))
 (=> x_2_p $x3101)))
(assert
 (let (($x3104 (not z_2_27)))
 (=> x_2_p $x3104)))
(assert
 (=> x_2_p z_2_28))
(assert
 (=> x_2_p z_2_29))
(assert
 (let (($x3111 (not z_2_30)))
 (=> x_2_p $x3111)))
(assert
 (let (($x3114 (not z_2_31)))
 (=> x_2_p $x3114)))
(assert
 (let (($x3117 (not z_2_32)))
 (=> x_2_p $x3117)))
(assert
 (=> x_2_p z_2_33))
(assert
 (let (($x3122 (not z_2_34)))
 (=> x_2_p $x3122)))
(assert
 (=> x_2_p z_2_35))
(assert
 (let (($x3127 (not z_2_36)))
 (=> x_2_p $x3127)))
(assert
 (let (($x3130 (not z_2_37)))
 (=> x_2_p $x3130)))
(assert
 (let (($x3133 (not z_2_38)))
 (=> x_2_p $x3133)))
(assert
 (let (($x3136 (not z_2_39)))
 (=> x_2_p $x3136)))
(assert
 (let (($x3139 (not z_2_40)))
 (=> x_2_p $x3139)))
(assert
 (let (($x3142 (not z_2_41)))
 (=> x_2_p $x3142)))
(assert
 (=> x_2_p z_2_42))
(assert
 (=> x_2_p z_2_43))
(assert
 (=> x_2_p z_2_44))
(assert
 (let (($x3151 (not z_2_45)))
 (=> x_2_p $x3151)))
(assert
 (=> x_2_p z_2_46))
(assert
 (let (($x3156 (not z_2_47)))
 (=> x_2_p $x3156)))
(assert
 (=> x_2_p z_2_48))
(assert
 (=> x_2_p z_2_49))
(assert
 (let (($x3163 (not z_2_50)))
 (=> x_2_p $x3163)))
(assert
 (let (($x3166 (not z_2_51)))
 (=> x_2_p $x3166)))
(assert
 (=> x_2_p z_2_52))
(assert
 (=> x_2_p z_2_53))
(assert
 (=> x_2_p z_2_54))
(assert
 (=> x_2_p z_2_55))
(assert
 (=> x_2_p z_2_56))
(assert
 (=> x_2_p z_2_57))
(assert
 (=> x_2_p z_2_58))
(assert
 (=> x_2_p z_2_59))
(assert
 (let (($x3185 (not z_2_60)))
 (=> x_2_p $x3185)))
(assert
 (let (($x3188 (not z_2_61)))
 (=> x_2_p $x3188)))
(assert
 (let (($x3191 (not z_2_62)))
 (=> x_2_p $x3191)))
(assert
 (let (($x3194 (not z_2_63)))
 (=> x_2_p $x3194)))
(assert
 (=> x_2_p z_2_64))
(assert
 (let (($x3199 (not z_2_65)))
 (=> x_2_p $x3199)))
(assert
 (let (($x3202 (not z_2_66)))
 (=> x_2_p $x3202)))
(assert
 (=> x_2_p z_2_67))
(assert
 (let (($x3207 (not z_2_68)))
 (=> x_2_p $x3207)))
(assert
 (=> x_2_p z_2_69))
(assert
 (=> x_2_p z_2_70))
(assert
 (let (($x3214 (not z_2_71)))
 (=> x_2_p $x3214)))
(assert
 (=> x_2_p z_2_72))
(assert
 (=> x_2_p z_2_73))
(assert
 (=> x_2_p z_2_74))
(assert
 (=> x_2_p z_2_75))
(assert
 (=> x_2_p z_2_76))
(assert
 (let (($x3227 (not z_2_77)))
 (=> x_2_p $x3227)))
(assert
 (=> x_2_p z_2_78))
(assert
 (=> x_2_p z_2_79))
(assert
 (=> x_2_p z_2_80))
(assert
 (=> x_2_p z_2_81))
(assert
 (let (($x3238 (not z_2_82)))
 (=> x_2_p $x3238)))
(assert
 (let (($x3241 (not z_2_83)))
 (=> x_2_p $x3241)))
(assert
 (let (($x3244 (not z_2_84)))
 (=> x_2_p $x3244)))
(assert
 (=> x_2_p z_2_85))
(assert
 (=> x_2_p z_2_86))
(assert
 (let (($x3251 (not z_2_87)))
 (=> x_2_p $x3251)))
(assert
 (=> x_2_p z_2_88))
(assert
 (let (($x3256 (not z_2_89)))
 (=> x_2_p $x3256)))
(assert
 (let (($x3259 (not z_2_90)))
 (=> x_2_p $x3259)))
(assert
 (=> x_2_p z_2_91))
(assert
 (=> x_2_p z_2_92))
(assert
 (let (($x3266 (not z_2_93)))
 (=> x_2_p $x3266)))
(assert
 (let (($x3269 (not z_2_94)))
 (=> x_2_p $x3269)))
(assert
 (let (($x3272 (not z_2_95)))
 (=> x_2_p $x3272)))
(assert
 (let (($x3275 (not z_2_96)))
 (=> x_2_p $x3275)))
(assert
 (=> x_2_p z_2_97))
(assert
 (let (($x3280 (not z_2_98)))
 (=> x_2_p $x3280)))
(assert
 (let (($x3283 (not z_2_99)))
 (=> x_2_p $x3283)))
(assert
 (=> x_2_p z_2_100))
(assert
 (=> x_2_p z_2_101))
(assert
 (let (($x3290 (not z_2_102)))
 (=> x_2_p $x3290)))
(assert
 (let (($x3293 (not z_2_103)))
 (=> x_2_p $x3293)))
(assert
 (let (($x3296 (not z_2_104)))
 (=> x_2_p $x3296)))
(assert
 (=> x_2_p z_2_105))
(assert
 (let (($x3301 (not z_2_106)))
 (=> x_2_p $x3301)))
(assert
 (let (($x3304 (not z_2_107)))
 (=> x_2_p $x3304)))
(assert
 (=> x_2_p z_2_108))
(assert
 (let (($x3309 (not z_2_109)))
 (=> x_2_p $x3309)))
(assert
 (=> x_2_p z_2_110))
(assert
 (let (($x3314 (not z_2_111)))
 (=> x_2_p $x3314)))
(assert
 (=> x_2_p z_2_112))
(assert
 (let (($x3319 (not z_2_113)))
 (=> x_2_p $x3319)))
(assert
 (=> x_2_p z_2_114))
(assert
 (let (($x3324 (not z_2_115)))
 (=> x_2_p $x3324)))
(assert
 (=> x_2_p z_2_116))
(assert
 (=> x_2_p z_2_117))
(assert
 (let (($x3331 (not z_2_118)))
 (=> x_2_p $x3331)))
(assert
 (or x_2_p))
(assert
 (let (($x3035 (not x_2_->)))
 (let (($x3033 (not x_2_U)))
 (let (($x3031 (not x_2_v)))
 (let (($x3029 (not x_2_&)))
 (let (($x3027 (not x_2_X)))
 (let (($x3025 (not x_2_!)))
 (let (($x3023 (not x_2_F)))
 (let (($x3021 (not x_2_G)))
 (and $x3021 $x3023 $x3025 $x3027 $x3029 $x3031 $x3033 $x3035))))))))))
(check-sat)

